20	5
0	3	3	1	2
1	1	4
2	1	5
3	2	4	9
4	1	8
5	3	19	9	4
6	1	14
7	1	17
8	1	17
9	1	14
10	2	16	13
11	1	7
12	1	11
13	0
14	1	12
15	0
16	1	15
17	1	18
18	1	20
19	0
20	1	21
21	0
0	0	0	0	0	0	0
1	10	5	2	2	5	0
2	8	4	2	4	4	5
3	5	5	3	0	0	2
4	1	1	2	1	0	0
5	3	3	0	0	4	2
6	4	4	0	1	0	4
7	10	1	2	1	1	1
8	1	3	3	0	0	4
9	6	0	4	0	0	5
10	9	4	0	3	0	5
11	6	0	1	1	3	2
12	7	4	5	3	2	1
13	7	1	3	1	1	1
14	3	2	1	0	3	1
15	6	0	5	0	0	0
16	6	5	4	4	4	2
17	6	1	4	0	0	0
18	10	3	4	1	1	2
19	8	3	2	2	3	4
20	10	5	2	3	1	5
21	0	0	0	0	0	0
6	5	5	6	5
